0 0 0 0
0 1 1 0
0 2 0 0
0 3 0 0
0 4 2 8
0 5 1 6
0 6 0 6
0 7 2 8
0 8 1 12
0 9 2 5
0 10 0 12
0 11 2 19
0 12 1 13
0 13 0 18
0 14 0 21
0 15 0 18
0 16 0 6
0 17 2 11
0 18 2 11
0 19 1 22
0 20 0 15
0 21 0 18
0 22 1 19
0 23 0 23
0 24 1 7
0 25 0 19
0 26 1 27
0 27 0 18
0 28 0 31
0 29 0 27
0 30 0 26
0 31 0 34
